n_res = 4;
rc = [ 20, 34, 29, 31 ];
n_tasks = 30;
d = [ 6, 8, 7, 4, 4, 8, 10, 10, 4, 9, 3, 9, 8, 7, 1, 1, 6, 6, 5, 6, 4, 6, 10, 6, 8, 4, 9, 4, 10, 8 ];
rr = [| 20, 20, 20, 20, 20, 20, 20, 20, 20, 20, 20, 20, 20, 20, 20, 20, 20, 20, 20, 20, 20, 20, 20, 20, 20, 20, 20, 20, 20, 20
      | 34, 34, 34, 34, 34, 34, 34, 34, 34, 34, 34, 34, 34, 34, 34, 34, 34, 34, 34, 34, 34, 34, 34, 34, 34, 34, 34, 34, 34, 34
      | 29, 29, 29, 29, 29, 29, 29, 29, 29, 29, 29, 29, 29, 29, 29, 29, 29, 29, 29, 29, 29, 29, 29, 29, 29, 29, 29, 29, 29, 29
      | 31, 31, 31, 31, 31, 31, 31, 31, 31, 31, 31, 31, 31, 31, 31, 31, 31, 31, 31, 31, 31, 31, 31, 31, 31, 31, 31, 31, 31, 31|];
suc = [ { 4, 14 },
       { 5, 8, 10 },
       { 6, 18 },
       { 7, 9 },
       { 7, 20, 28 },
       { 7, 8 },
       { 25 },
       { 11, 12, 13 },
       { 11, 17, 22 },
       { 15, 16 },
       { 19, 21 },
       { 26, 27 },
       { 22 },
       { 29 },
       { 19, 22 },
       { 17, 21 },
       { 20, 24 },
       { 29 },
       { 20, 23, 25 },
       { 29 },
       { 23, 24, 25 },
       { 24, 26, 28 },
       { 28 },
       { 27 },
       { 26, 27 },
       { 30 },
       { 30 },
       {  },
       {  },
       {  } ];
